\ Model qcp
\ LP format - for model browsing. Use MPS format to capture full model detail.
Minimize
  16.67128923371409 C0 + 16.37770110004126 C1
Subject To
 R0: - 4.6269858523238751e+22 C3 + 9.4159413613556998e+22 C4 >= 0
 R1: 9.4988851232803173e+22 C3 - 4.7099296142484935e+22 C4 >= 0
 R2: 1.4125870975604195e+22 C2 - 4.6269858523238751e+22 C3
   - 4.7099296142484935e+22 C4 >= 0
 qc0: 6.724459779991747 C3 - 3.334257846742819 C4 + [ - 10 C0 * C3 ] = 0
 qc1: - 3.275540220008252 C3 + 6.66574215325718 C4 + [ - 10 C1 * C4 ] = 0
 norm: [ C2 ^2 + C3 ^2 + C4 ^2 ] = 1
Bounds
 C0 <= 1
 C1 <= 1
 -0.999 <= C2 <= 0.999
 -0.999 <= C3 <= 0.999
 -0.999 <= C4 <= 0.999
End
